Gurobi 12.0.1:   lim:time = 500
  mip:bestbound = 1
Set parameter LogToConsole to value 1
  tech:outlev = 1
Set parameter InfUnbdInfo to value 1
Gurobi Optimizer version 12.0.1 build v12.0.1rc0 (win64 - Windows 11.0 (26100.2))

CPU model: Intel(R) Core(TM) i7-10700 CPU @ 2.90GHz, instruction set [SSE2|AVX|AVX2]
Thread count: 8 physical cores, 16 logical processors, using up to 16 threads

Non-default parameters:
TimeLimit  500
InfUnbdInfo  1

Optimize a model with 326 rows, 632 columns and 3185 nonzeros
Model fingerprint: 0x0fcc2697
Model has 1 quadratic objective term
Model has 5 quadratic constraints
Variable types: 27 continuous, 605 integer (0 binary)
Coefficient statistics:
  Matrix range     [1e+00, 1e+05]
  QMatrix range    [1e+00, 1e+00]
  QLMatrix range   [1e+00, 8e+00]
  Objective range  [7e+00, 4e+02]
  QObjective range [2e+00, 2e+00]
  Bounds range     [1e+00, 9e+01]
  RHS range        [1e+00, 1e+05]
  QRHS range       [1e+02, 1e+02]
Presolve removed 30 rows and 64 columns
Presolve time: 0.02s
Presolved: 605 rows, 838 columns, 4250 nonzeros
Variable types: 15 continuous, 823 integer (823 binary)
Found heuristic solution: objective 2137.7400000

Root relaxation: objective 5.058809e+02, 65 iterations, 0.00 seconds (0.00 work units)

    Nodes    |    Current Node    |     Objective Bounds      |     Work
 Expl Unexpl |  Obj  Depth IntInf | Incumbent    BestBd   Gap | It/Node Time

     0     0  505.88089    0   25 2137.74000  505.88089  76.3%     -    0s
H    0     0                    1043.9800000  505.88089  51.5%     -    0s
H    0     0                     936.1300000  505.88089  46.0%     -    0s
H    0     0                     828.1600000  505.88089  38.9%     -    0s
H    0     0                     769.0600000  505.88089  34.2%     -    0s
     0     0  598.44500    0   26  769.06000  598.44500  22.2%     -    0s
     0     0  617.10500    0   24  769.06000  617.10500  19.8%     -    0s
     0     0  624.92750    0   33  769.06000  624.92750  18.7%     -    0s
     0     0  624.92750    0   26  769.06000  624.92750  18.7%     -    0s
     0     0  624.92750    0   19  769.06000  624.92750  18.7%     -    0s
     0     0  624.92750    0   23  769.06000  624.92750  18.7%     -    0s
     0     0  624.98000    0   22  769.06000  624.98000  18.7%     -    0s
     0     0  625.98000    0   17  769.06000  625.98000  18.6%     -    0s
     0     0  625.98000    0   17  769.06000  625.98000  18.6%     -    0s
     0     0  625.98000    0   17  769.06000  625.98000  18.6%     -    0s
     0     0  625.98000    0   17  769.06000  625.98000  18.6%     -    0s
     0     0  625.98000    0   16  769.06000  625.98000  18.6%     -    0s
     0     0  625.98000    0   16  769.06000  625.98000  18.6%     -    0s
H    0     0                     753.1900000  625.98000  16.9%     -    0s
     0     0  625.98000    0   25  753.19000  625.98000  16.9%     -    0s
     0     0  625.98000    0   31  753.19000  625.98000  16.9%     -    0s
     0     0  625.98000    0   16  753.19000  625.98000  16.9%     -    0s
     0     0  625.98000    0   16  753.19000  625.98000  16.9%     -    0s
     0     0  625.98000    0   19  753.19000  625.98000  16.9%     -    0s
     0     0  625.98000    0   19  753.19000  625.98000  16.9%     -    0s
     0     0  625.98000    0   19  753.19000  625.98000  16.9%     -    0s
     0     0  625.98000    0   19  753.19000  625.98000  16.9%     -    0s
     0     0  625.98000    0   16  753.19000  625.98000  16.9%     -    0s
     0     2  625.98000    0   16  753.19000  625.98000  16.9%     -    0s
H   46    41                     736.2100000  626.02651  15.0%   9.2    0s

Cutting planes:
  Learned: 7
  Gomory: 4
  Cover: 6
  Implied bound: 21
  MIR: 4
  Inf proof: 5
  Zero half: 5
  RLT: 26

Explored 461 nodes (4180 simplex iterations) in 0.39 seconds (0.33 work units)
Thread count was 16 (of 16 available processors)

Solution count 7: 736.21 753.19 769.06 ... 2137.74

Optimal solution found (tolerance 1.00e-04)
Best objective 7.362100000000e+02, best bound 7.362100000000e+02, gap 0.0000%

AMPL MP initial flat model has 632 variables (0 integer, 605 binary);
Objectives: 1 quadratic; 
Constraints:  326 linear; 5 quadratic;

AMPL MP final model has 632 variables (0 integer, 605 binary);
Objectives: 1 quadratic; 
Constraints:  326 linear; 5 quadratic;


-----RESULTS INFO-----
running_time:  0.46900000000000003
TC.best_bound:  736.2099999999999
TC:  736.21
MIP Gap (%):  1.5442175156764514e-14
=== Vehicle Routes ===
Vehicle 1: 0 → 13
Vehicle 1: 1 → 2
Vehicle 1: 2 → 8
Vehicle 1: 3 → 16
Vehicle 1: 4 → 12
Vehicle 1: 8 → 18
Vehicle 1: 12 → 3
Vehicle 1: 13 → 4
Vehicle 1: 16 → 1
Vehicle 2: 0 → 18
Vehicle 3: 0 → 18

=== Full Vehicle Routes ===
Vehicle 1: 0 → 13 → 4 → 12 → 3 → 16 → 1 → 2 → 8 → 0 (89<100)
Vehicle 2: 0 → 0 (0<100)
Vehicle 3: 0 → 0 (0<100)
Arc used by MRT line: y variables:
MRT used: 13 → 14
Customer assigment to PL: u variables:
5 14
6 16
7 12
Node is served by regular vehicle: g variables:
1
2
3
4
8
16
12
13
Customer assigment to Home delivery: gm variables:
1
2
3
4
8
Node total demands: ntd variables:
1 8 1
2 6 1
3 2 1
4 8 1
7 0 0
8 24 1
15 0 0
16 1 1
17 0 0
9 0 0
10 0 0
11 0 0
12 24 1
13 16 1
14 0 0
Customer's demand delivered to PL: l variables:
5
6
7
